min: c;

c = 3.51893900213272 * u1_t7_h4 + 3.23091888701609 * u1_t7_h5 + 3.80439804722484 * u1_t5_h6 + 3.80439804722484 * u1_t7_h6 + 4.15113786639136 * u1_t5_h7 + 4.15113786639136 * u1_t7_h7 + 4.15113786639136 * u1_t9_h7 + 5.10695160637244 * u1_t5_h8 + 5.10695160637244 * u1_t7_h8 + 5.10695160637244 * u1_t9_h8 + 5.10695160637244 * u1_t10_h8 + 4.74002297037331 * u1_t5_h9 + 4.74002297037331 * u1_t7_h9 + 4.74002297037331 * u1_t9_h9 + 4.74002297037331 * u1_t10_h9 + 5.27659808020211 * u1_t5_h10 + 5.27659808020211 * u1_t7_h10 + 5.27659808020211 * u1_t9_h10 + 5.27659808020211 * u1_t10_h10 + 4.04781415506191 * u1_t5_h11 + 4.04781415506191 * u1_t9_h11 + 4.04781415506191 * u1_t10_h11 + 6.15898041469568 * u1_t4_h12 + 6.15898041469568 * u1_t5_h12 + 6.15898041469568 * u1_t8_h12 + 6.15898041469568 * u1_t9_h12 + 6.15898041469568 * u1_t10_h12 + 4.59539717063176 * u1_t4_h13 + 4.59539717063176 * u1_t8_h13 + 4.59539717063176 * u1_t9_h13 + 4.59539717063176 * u1_t10_h13 + 5.87413479368636 * u1_t4_h14 + 5.87413479368636 * u1_t8_h14 + 5.87413479368636 * u1_t9_h14 + 5.87413479368636 * u1_t10_h14 + 5.79268295623399 * u1_t4_h15 + 5.79268295623399 * u1_t8_h15 + 5.48859205119102 * u1_t4_h16 + 5.48859205119102 * u1_t8_h16 + 6.59080911853294 * u1_t4_h17 + 6.59080911853294 * u1_t8_h17 + 6.1123845143503 * u1_t2_h18 + 6.1123845143503 * u1_t4_h18 + 6.1123845143503 * u1_t6_h18 + 6.1123845143503 * u1_t8_h18 + 5.52835571347566 * u1_t2_h19 + 5.52835571347566 * u1_t3_h19 + 5.52835571347566 * u1_t4_h19 + 5.52835571347566 * u1_t6_h19 + 5.15056000969758 * u1_t1_h20 + 5.15056000969758 * u1_t2_h20 + 5.15056000969758 * u1_t3_h20 + 5.15056000969758 * u1_t4_h20 + 5.15056000969758 * u1_t6_h20 + 4.84073788949785 * u1_t1_h21 + 4.84073788949785 * u1_t2_h21 + 4.84073788949785 * u1_t3_h21 + 6.05679210902429 * u1_t1_h22 + 6.05679210902429 * u1_t2_h22 + 5.78778752944181 * u1_t1_h23 + 5.78778752944181 * u1_t2_h23;
0 <= u1_t1_h20 <= 1;
0 <= u1_t1_h21 <= 1;
0 <= u1_t1_h22 <= 1;
0 <= u1_t1_h23 <= 1;
u1_t1_h20 + u1_t1_h21 + u1_t1_h22 + u1_t1_h23 = 1;
0 <= u1_t2_h18 <= 1;
0 <= u1_t2_h19 <= 1;
0 <= u1_t2_h20 <= 1;
0 <= u1_t2_h21 <= 1;
0 <= u1_t2_h22 <= 1;
0 <= u1_t2_h23 <= 1;
u1_t2_h18 + u1_t2_h19 + u1_t2_h20 + u1_t2_h21 + u1_t2_h22 + u1_t2_h23 = 2;
0 <= u1_t3_h19 <= 1;
0 <= u1_t3_h20 <= 1;
0 <= u1_t3_h21 <= 1;
u1_t3_h19 + u1_t3_h20 + u1_t3_h21 = 1;
0 <= u1_t4_h12 <= 1;
0 <= u1_t4_h13 <= 1;
0 <= u1_t4_h14 <= 1;
0 <= u1_t4_h15 <= 1;
0 <= u1_t4_h16 <= 1;
0 <= u1_t4_h17 <= 1;
0 <= u1_t4_h18 <= 1;
0 <= u1_t4_h19 <= 1;
0 <= u1_t4_h20 <= 1;
u1_t4_h12 + u1_t4_h13 + u1_t4_h14 + u1_t4_h15 + u1_t4_h16 + u1_t4_h17 + u1_t4_h18 + u1_t4_h19 + u1_t4_h20 = 3;
0 <= u1_t5_h6 <= 1;
0 <= u1_t5_h7 <= 1;
0 <= u1_t5_h8 <= 1;
0 <= u1_t5_h9 <= 1;
0 <= u1_t5_h10 <= 1;
0 <= u1_t5_h11 <= 1;
0 <= u1_t5_h12 <= 1;
u1_t5_h6 + u1_t5_h7 + u1_t5_h8 + u1_t5_h9 + u1_t5_h10 + u1_t5_h11 + u1_t5_h12 = 3;
0 <= u1_t6_h18 <= 1;
0 <= u1_t6_h19 <= 1;
0 <= u1_t6_h20 <= 1;
u1_t6_h18 + u1_t6_h19 + u1_t6_h20 = 2;
0 <= u1_t7_h4 <= 1;
0 <= u1_t7_h5 <= 1;
0 <= u1_t7_h6 <= 1;
0 <= u1_t7_h7 <= 1;
0 <= u1_t7_h8 <= 1;
0 <= u1_t7_h9 <= 1;
0 <= u1_t7_h10 <= 1;
u1_t7_h4 + u1_t7_h5 + u1_t7_h6 + u1_t7_h7 + u1_t7_h8 + u1_t7_h9 + u1_t7_h10 = 2;
0 <= u1_t8_h12 <= 1;
0 <= u1_t8_h13 <= 1;
0 <= u1_t8_h14 <= 1;
0 <= u1_t8_h15 <= 1;
0 <= u1_t8_h16 <= 1;
0 <= u1_t8_h17 <= 1;
0 <= u1_t8_h18 <= 1;
u1_t8_h12 + u1_t8_h13 + u1_t8_h14 + u1_t8_h15 + u1_t8_h16 + u1_t8_h17 + u1_t8_h18 = 2;
0 <= u1_t9_h7 <= 1;
0 <= u1_t9_h8 <= 1;
0 <= u1_t9_h9 <= 1;
0 <= u1_t9_h10 <= 1;
0 <= u1_t9_h11 <= 1;
0 <= u1_t9_h12 <= 1;
0 <= u1_t9_h13 <= 1;
0 <= u1_t9_h14 <= 1;
u1_t9_h7 + u1_t9_h8 + u1_t9_h9 + u1_t9_h10 + u1_t9_h11 + u1_t9_h12 + u1_t9_h13 + u1_t9_h14 = 3;
0 <= u1_t10_h8 <= 1;
0 <= u1_t10_h9 <= 1;
0 <= u1_t10_h10 <= 1;
0 <= u1_t10_h11 <= 1;
0 <= u1_t10_h12 <= 1;
0 <= u1_t10_h13 <= 1;
0 <= u1_t10_h14 <= 1;
u1_t10_h8 + u1_t10_h9 + u1_t10_h10 + u1_t10_h11 + u1_t10_h12 + u1_t10_h13 + u1_t10_h14 = 3;
